n_res = 4;
rc = [ 0, 0, 0, 0 ];
n_tasks = 30;
d = [ 2, 3, 3, 5, 6, 2, 8, 1, 10, 1, 8, 8, 9, 9, 8, 9, 5, 4, 7, 5, 6, 7, 1, 2, 1, 8, 3, 8, 3, 8 ];
rr = [| 0, 0, 0, 0, 0, 0, 0, 0, 0, 0, 0, 0, 0, 0, 0, 0, 0, 0, 0, 0, 0, 0, 0, 0, 0, 0, 0, 0, 0, 0
      | 0, 0, 0, 0, 0, 0, 0, 0, 0, 0, 0, 0, 0, 0, 0, 0, 0, 0, 0, 0, 0, 0, 0, 0, 0, 0, 0, 0, 0, 0
      | 0, 0, 0, 0, 0, 0, 0, 0, 0, 0, 0, 0, 0, 0, 0, 0, 0, 0, 0, 0, 0, 0, 0, 0, 0, 0, 0, 0, 0, 0
      | 0, 0, 0, 0, 0, 0, 0, 0, 0, 0, 0, 0, 0, 0, 0, 0, 0, 0, 0, 0, 0, 0, 0, 0, 0, 0, 0, 0, 0, 0 |];
suc = [ { 4, 10, 14 },
       { 5, 8, 14 },
       { 4, 7, 13 },
       { 16, 18, 20 },
       { 6, 10, 18 },
       { 9, 12, 17 },
       { 8, 11, 16 },
       { 12, 18, 22 },
       { 13, 21, 26 },
       { 11, 13, 16 },
       { 12, 15, 17 },
       { 20, 24 },
       { 30 },
       { 21, 22 },
       { 19, 22, 23 },
       { 23, 30 },
       { 19, 28, 29 },
       { 23, 25 },
       { 20 },
       { 21, 26 },
       { 25 },
       { 24, 26 },
       { 28, 29 },
       { 25, 28, 29 },
       { 27 },
       { 27 },
       { 30 },
       {  },
       {  },
       {  } ];
